<number of tasks>
50

<cycle time>
1000

<order strength>
0.196


<task times>
1 100
2 79
3 67
4 46
5 112
6 245
7 204
8 159
9 153
10 76
11 353
12 290
13 279
14 121
15 188
16 128
17 75
18 156
19 300
20 91
21 54
22 25
23 127
24 48
25 124
26 107
27 25
28 47
29 180
30 64
31 120
32 193
33 142
34 168
35 145
36 179
37 69
38 130
39 199
40 111
41 157
42 63
43 239
44 219
45 84
46 161
47 240
48 66
49 180
50 80

<precedence relations>
1,6
1,8
1,10
2,24
2,44
3,40
4,7
5,9
6,11
6,12
6,19
7,18
7,20
8,14
8,16
8,17
9,13
10,11
10,15
10,46
10,49
10,50
13,25
13,46
14,23
14,26
15,21
17,24
18,22
18,27
18,32
21,28
21,33
21,48
22,29
23,30
23,46
24,32
24,43
27,31
27,48
28,36
29,35
29,37
31,42
31,43
32,34
33,38
33,39
34,40
34,42
34,45
37,41
37,44
39,43
40,46
40,48
41,50
42,49
44,45
44,47

<end>
